NAME: tsp10_6
COMMENT: 10-tsp problem (Padberg/Rinaldi)
TYPE: TSP
DIMENSION: 10
EDGE_WEIGHT_TYPE : EUC_2D
NODE_COORD_SECTION
1.00 17.20 13.04
2.00 28.11 16.25
3.00 5.93 33.68
4.00 6.77 24.57
5.00 5.94 32.63
6.00 20.17 15.15
7.00 10.03 19.09
8.00 24.76 38.34
9.00 17.83 12.14
10.00 19.65 33.44
